193
Lattice="12.4320001602 0.0 0.0 0.0 12.4320001602 0.0 0.0 0.0 12.4320001602" Properties=species:S:1:pos:R:3 pbc="T T T"
O       10.30309313       2.23161603       9.02462212
O        6.00877908      10.58921314       9.01065812
O        5.89120208       6.53910808      10.75162914
O       11.38903715       7.79241610      10.42936713
O        8.82177111      12.37274816      12.34596716
O        7.14484109       8.44494511       7.17922409
O        1.79275702       6.01597108      12.07535816
O        2.77388004       9.23664312      10.22686113
O        7.06661709       2.22758403       2.50202403
O        4.92726406      10.84159014       0.66820701
O        7.51537310      10.11942913       2.16873703
O       11.10865214       6.29808408       6.21320708
O        9.69575312       4.53369806       0.50113401
O       10.67365214      10.09227513       9.50202812
O       10.13299013       5.91559908       9.20797012
O        2.15965303       7.13155109       3.66554205
O        7.01306009       1.59147202       6.20803508
O       11.33305015       8.75989511       5.07418707
O        0.69998601      11.12818414       8.58301111
O       12.14922216       0.96657201       2.34974403
O        9.38637712       9.98399013       6.53805708
O        1.30270102       4.70537906       2.49026703
O        9.31960912       0.38120001       2.43653003
O        6.99270609       1.36904302      10.98695414
O        3.44588004       1.96178403       0.07844700
O        6.51144108       9.16590712       4.50406206
O        4.45629206       6.35908908       1.97492102
O        8.37083111      10.19420713      10.77825314
O        1.19497901      12.15776116       4.25455405
O        4.36433306       1.27728502       2.56579703
O        1.03170601       0.96381401      12.18672116
O        4.81056306       4.69009206       6.49427208
O        4.62001706       0.04180800      11.09280514
O        7.67562210       5.04638007       8.77879311
O        4.76740206      11.97357915       6.99288809
O        9.29056512       6.87040509       1.70058202
O       11.19012814       3.60195305       2.85573304
O        2.94240504       7.97845910       5.84828908
O        8.53395311       7.67975710      11.78342215
O        7.22884509       3.95628005       4.46369706
O       11.22079715       3.85580205      10.69237014
O        4.81816306       4.14653705       0.02031300
O        1.01010601       4.67744806       6.24791308
O        6.90749109       6.43601208       3.30017104
O       10.12478713       4.04399205       5.17794407
O        1.67615902       1.64281702       5.88509508
O        9.54922612       0.26849200       5.43942107
O       10.94523914       0.38652201      10.95599914
O        2.98243804       0.17721000       8.76849711
O       11.86586515       7.46302010       0.98900401
O        1.03369401       9.69597713       6.37292408
O        7.31194709       3.46231504      12.42859516
O       11.28186014       2.00193203       6.69602709
O        7.82618710       2.48452703       8.64544811
O        1.61697902       3.42852704      10.17228713
O        2.69923904       4.99087406       8.21077211
O        0.56142801       9.11314112       2.72133403
O        0.96649401      10.66069914      11.51183115
O        3.19276504       3.20123604       4.18308605
O        4.15559305      10.01574513       5.13014607
O        3.14395704      10.71577414       2.76294104
O        1.40459902       7.11552309       9.46605012
O        4.70749006       8.37413911      12.06466415
O        7.14913909       5.81750308       6.58957908
H       10.52043214       3.03379304       9.47556912
H       10.59680414       1.44380302       9.63047412
H        5.71716007      11.23879914       8.35908711
H        5.20981107      10.38060813       9.55536012
H        5.32911807       5.84931108      11.16595814
H        6.44939708       6.19735608      10.04650813
H       12.23570416       7.64474310       9.88312513
H       11.06742914       8.58632311       9.91160913
H        8.62739811      11.48646015      11.95941415
H        8.85757811      12.37906516       0.93897501
H        8.02209610       8.92829011       7.17166209
H        6.60391008       9.15115112       7.53746210
H        1.73623702       6.58123409      11.27887214
H        2.71527803       6.00344608      12.36884016
H        2.27684903       9.90885613      10.79349014
H        3.60492505       9.11281012      10.75885714
H        7.10138509       2.37562303       1.51505002
H        6.24361608       1.67732302       2.62072103
H        5.77837107      10.93254914       1.14812201
H        4.87667906       9.91429813       0.20165000
H        7.80857210       9.28286912       1.84108202
H        7.29222609       9.91578213       3.03979104
H       11.21473614       7.16407009       5.76094907
H       10.45705513       6.43702808       6.90034009
H       10.18609513       4.16688705       1.31771002
H        9.48037512       5.46935407       0.79275901
H       11.24210515      10.88613214       9.50874412
H        9.98351313      10.30766113      10.14145913
H       10.62849914       5.25507107       9.71208413
H       10.39294313       6.68652109       9.75139513
H        1.55714402       7.94938910       3.42676304
H        1.49676202       6.37473608       3.57394205
H        7.19934809       2.43245003       5.73565107
H        7.11476309       1.87621102       7.12822209
H       11.73657815       8.81789111       4.16760805
H       12.03785116       9.21647312       5.62547407
H        1.26244302      10.56723214       9.09438212
H        0.75985501      10.50382813       7.83517310
H        0.18669700       0.55612601       3.14830704
H       11.23888815       0.52157001       2.33914503
H       10.03553113       9.60619312       5.90687308
H        9.79194313      10.05902713       7.42770610
H        1.26229602       4.88686606       1.51012102
H        0.33187900       4.44534406       2.74012303
H        9.19462412      12.10211116       3.07809004
H        8.53119011       1.02305801       2.64839403
H        7.73947210       0.84105401      11.40045415
H        6.13095308       0.87500101      11.15611414
H        4.02105005       2.78388504      12.35230816
H        3.75189905       1.69928402       0.99980901
H        7.06492309       9.13863512       5.25338407
H        5.59439107       9.31135512       4.69630406
H        5.20168107       6.39788308       2.54183503
H        3.77044505       6.68987209       2.60783903
H        7.66050910      10.26264613      10.12046513
H        8.37343311       9.32741112      11.21753514
H        1.71101202       0.41153701       4.79789806
H        1.76510602      11.70698315       3.58902205
H        4.06378305       0.36385301       2.66552903
H        3.82285705       1.89020002       3.14035904
H        1.89236102       1.39411202      12.25848516
H        0.52987801       0.99039701       0.63668301
H        4.49414006       4.14508705       5.72680007
H        4.06626205       4.69218206       7.09547609
H        4.67640206      11.64851515      11.68042415
H        4.02102605       0.69505601      11.58035215
H        7.72350910       3.92968505       8.79531911
H        8.60066811       5.36866307       9.06972512
H        4.09768005      12.41302116       7.56490710
H        5.27566707       0.20419700       6.46248108
H       10.08679713       7.19168309       2.13530803
H        8.49922811       6.80931509       2.29803603
H       10.95715014       3.66083605       3.85194805
H       11.51247215       2.71143403       2.61474703
H        2.92193704       7.36364010       6.61339008
H        2.63348003       7.43991410       5.00972606
H        8.68248711       7.42277910       0.33842900
H        7.75375510       7.20895109      11.44219215
H        6.82903709       3.35263704       3.87809805
H        8.22345011       3.86673705       4.43982606
H       12.15656516       3.59607505      10.65610314
H       10.91357414       3.85180305      11.59779215
H        4.68919906       4.83606306       0.74923901
H        5.80091808       4.10442405       0.00278800
H        0.74361301       3.83188005       5.81664408
H        0.19410000       5.20371007       6.25588608
H        6.54254708       7.12519009       3.85763105
H        7.04814809       5.62567207       3.81694605
H       10.48960614       4.85990306       5.48721507
H       10.44508814       3.31554204       5.73373607
H        0.71511401       1.69261402       6.12178408
H        2.10289003       1.55254002       6.78180009
H        8.62041011       0.65681001       5.57551907
H        9.49212912      11.74022215       5.68149607
H       10.30380313       0.41636301      11.76268815
H       11.87309015       0.46457901      11.31050515
H        2.05012903      12.32068516       8.70605111
H        3.41815304      12.33367716       9.58713312
H       11.74810715       7.65214210       0.04515700
H        0.22498800       6.87586309       0.98559701
H        1.28643002      10.52474514       6.00040808
H        1.84758402       9.11455112       6.06364308
H        8.27021111       3.74000105       0.09904900
H        7.20443009       2.72319503      11.76469015
H       11.03622214       2.03635903       7.66157710
H       10.70799614       1.29530802       6.33946908
H        8.84346711       2.37354303       8.67112411
H        7.55866110       2.05389103       9.54413612
H        1.99485003       4.11029205      10.76068514
H        1.96847203       2.60862403      10.60238814
H        1.95892303       4.77186306       7.56470610
H        2.50932503       4.25166305       8.85008311
H        0.11265200       8.81945911       1.89122802
H        1.05094901       9.96532413       2.50639303
H        0.13883400      10.67762214      11.02181714
H        1.08142301      11.61107015      11.67046215
H        2.65099203       2.63865903       4.85120006
H        2.52633003       3.73633505       3.66015905
H        3.69111605       9.36608812       5.66955407
H        4.47372606      10.75511414       5.65928307
H        3.87231605      10.70256514       1.96890203
H        3.55585105      10.63379014       3.67049605
H        1.88656002       6.45490208       9.02682112
H        2.00404603       7.91323010       9.71492513
H        5.41277607       7.89635110      11.57546315
H        4.31587806       7.68828710       0.26864100
H        6.28535208       5.19308907       6.34431308
H        7.43028510       5.50753507       7.70814310
H        6.86528809       6.75948509       6.72719509
