POSCAR file written by OVITO Basic 3.9.4
1.0
       12.4320001602         0.0000000000         0.0000000000
        0.0000000000        12.4320001602         0.0000000000
        0.0000000000         0.0000000000        12.4320001602
    O    H
   64  129
Cartesian
    10.303093133         2.231616029         9.024622116
     6.008779077        10.589213136         9.010658116
     5.891202076         6.539108084        10.751629139
    11.389037147         7.792416100        10.429367134
     8.821771114        12.372748159        12.345967159
     7.144841092         8.444945109         7.179224093
     1.792757023         6.015971078        12.075358156
     2.773880036         9.236643119        10.226861132
     7.066617091         2.227584029         2.502024032
     4.927264064        10.841590140         0.668207009
     7.515373097        10.119429130         2.168737028
    11.108652143         6.298084081         6.213207080
     9.695753125         4.533698058         0.501134006
    10.673652138        10.092275130         9.502028122
    10.132990131         5.915599076         9.207970119
     2.159653028         7.131551092         3.665542047
     7.013060090         1.591472021         6.208035080
    11.333050146         8.759895113         5.074187065
     0.699986009        11.128184143         8.583011111
    12.149222157         0.966572012         2.349744030
     9.386377121         9.983990129         6.538057084
     1.302701017         4.705379061         2.490267032
     9.319609120         0.381200005         2.436530031
     6.992706090         1.369043018        10.986954142
     3.445880044         1.961784025         0.078447001
     6.511441084         9.165907118         4.504062058
     4.456292057         6.359089082         1.974921025
     8.370831108        10.194207131        10.778253139
     1.194979015        12.157761157         4.254554055
     4.364333056         1.277285016         2.565797033
     1.031706013         0.963814012        12.186721157
     4.810563062         4.690092060         6.494272084
     4.620017060         0.041808001        11.092805143
     7.675622099         5.046380065         8.778793113
     4.767402061        11.973579154         6.992888090
     9.290565120         6.870405089         1.700582022
    11.190128144         3.601953046         2.855733037
     2.942405038         7.978459103         5.848289075
     8.533953110         7.679757099        11.783422152
     7.228845093         3.956280051         4.463697058
    11.220797145         3.855802050        10.692370138
     4.818163062         4.146537053         0.020313000
     1.010106013         4.677448060         6.247913081
     6.907491089         6.436012083         3.300171043
    10.124787130         4.043992052         5.177944067
     1.676159022         1.642817021         5.885095076
     9.549226123         0.268492003         5.439421070
    10.945239141         0.386522005        10.955999141
     2.982438038         0.177210002         8.768497113
    11.865865153         7.463020096         0.989004013
     1.033694013         9.695977125         6.372924082
     7.311947094         3.462315045        12.428595160
    11.281860145         2.001932026         6.696027086
     7.826187101         2.484527032         8.645448111
     1.616979021         3.428527044        10.172287131
     2.699239035         4.990874064         8.210772106
     0.561428007         9.113141117         2.721334035
     0.966494012        10.660699137        11.511831148
     3.192765041         3.201236041         4.183086054
     4.155593054        10.015745129         5.130146066
     3.143957041        10.715774138         2.762941036
     1.404599018         7.115523092         9.466050122
     4.707490061         8.374139108        12.064664155
     7.149139092         5.817503075         6.589579085
    10.520432136         3.033793039         9.475569122
    10.596804137         1.443803019         9.630474124
     5.717160074        11.238799145         8.359087108
     5.209811067        10.380608134         9.555360123
     5.329118069         5.849311075        11.165958144
     6.449397083         6.197356080        10.046508129
    12.235704158         7.644743099         9.883125127
    11.067429143         8.586323111         9.911609128
     8.627398111        11.486460148        11.959414154
     8.857578114        12.379065160         0.938975012
     8.022096103         8.928290115         7.171662092
     6.603910085         9.151151118         7.537462097
     1.736237022         6.581234085        11.278872145
     2.715278035         6.003446077        12.368840159
     2.276849029         9.908856128        10.793490139
     3.604925046         9.112810117        10.758857139
     7.101385092         2.375623031         1.515050020
     6.243616080         1.677323022         2.620721034
     5.778371074        10.932549141         1.148122015
     4.876679063         9.914298128         0.201650003
     7.808572101         9.282869120         1.841082024
     7.292226094         9.915782128         3.039791039
    11.214736145         7.164070092         5.760949074
    10.457055135         6.437028083         6.900340089
    10.186095131         4.166887054         1.317710017
     9.480375122         5.469354070         0.792759010
    11.242105145        10.886132140         9.508744123
     9.983513129        10.307661133        10.141459131
    10.628499137         5.255071068         9.712084125
    10.392943134         6.686521086         9.751395126
     1.557144020         7.949389102         3.426763044
     1.496762019         6.374736082         3.573942046
     7.199348093         2.432450031         5.735651074
     7.114763092         1.876211024         7.128222092
    11.736578151         8.817891114         4.167608054
    12.037851155         9.216473119         5.625474072
     1.262443016        10.567232136         9.094382117
     0.759855010        10.503828135         7.835173101
     0.186697002         0.556126007         3.148307041
    11.238888145         0.521570007         2.339145030
    10.035531129         9.606193124         5.906873076
     9.791943126        10.059027130         7.427706096
     1.262296016         4.886866063         1.510121019
     0.331879004         4.445344057         2.740123035
     9.194624118        12.102111156         3.078090040
     8.531190110         1.023058013         2.648394034
     7.739472100         0.841054011        11.400454147
     6.130953079         0.875001011        11.156114144
     4.021050052         2.783885036        12.352308159
     3.751899048         1.699284022         0.999809013
     7.064923091         9.138635118         5.253384068
     5.594391072         9.311355120         4.696304061
     5.201681067         6.397883082         2.541835033
     3.770445049         6.689872086         2.607839034
     7.660509099        10.262646132        10.120465130
     8.373433108         9.327411120        11.217535145
     1.711012022         0.411537005         4.797898062
     1.765106023        11.706983151         3.589022046
     4.063783052         0.363853005         2.665529034
     3.822857049         1.890200024         3.140359040
     1.892361024         1.394112018        12.258485158
     0.529878007         0.990397013         0.636683008
     4.494140058         4.145087053         5.726800074
     4.066262052         4.692182060         7.095476091
     4.676402060        11.648515150        11.680424151
     4.021026052         0.695056009        11.580352149
     7.723509100         3.929685051         8.795319113
     8.600668111         5.368663069         9.069725117
     4.097680053        12.413021160         7.564907097
     5.275667068         0.204197003         6.462481083
    10.086797130         7.191683093         2.135308028
     8.499228110         6.809315088         2.298036030
    10.957150141         3.660836047         3.851948050
    11.512472148         2.711434035         2.614747034
     2.921937038         7.363640095         6.613390085
     2.633480034         7.439914096         5.009726065
     8.682487112         7.422779096         0.338429004
     7.753755100         7.208951093        11.442192147
     6.829037088         3.352637043         3.878098050
     8.223450106         3.866737050         4.439826057
    12.156565157         3.596075046        10.656103137
    10.913574141         3.851803050        11.597792149
     4.689199060         4.836063062         0.749239010
     5.800918075         4.104424053         0.002788000
     0.743613010         3.831880049         5.816644075
     0.194100003         5.203710067         6.255886081
     6.542547084         7.125190092         3.857631050
     7.048148091         5.625672073         3.816946049
    10.489606135         4.859903063         5.487215071
    10.445088135         3.315542043         5.733736074
     0.715114009         1.692614022         6.121784079
     2.102890027         1.552540020         6.781800087
     8.620410111         0.656810008         5.575519072
     9.492129122        11.740222151         5.681496073
    10.303803133         0.416363005        11.762688152
    11.873090153         0.464579006        11.310505146
     2.050129026        12.320685159         8.706051112
     3.418153044        12.333677159         9.587133124
    11.748107151         7.652142099         0.045157001
     0.224988003         6.875863089         0.985597013
     1.286430017        10.524745136         6.000408077
     1.847584024         9.114551117         6.063643078
     8.270211107         3.740001048         0.099049001
     7.204430093         2.723195035        11.764690152
    11.036222142         2.036359026         7.661577099
    10.707996138         1.295308017         6.339469082
     8.843467114         2.373543031         8.671124112
     7.558661097         2.053891026         9.544136123
     1.994850026         4.110292053        10.760685139
     1.968472025         2.608624034        10.602388137
     1.958923025         4.771863061         7.564706097
     2.509325032         4.251663055         8.850083114
     0.112652001         8.819459114         1.891228024
     1.050949014         9.965324128         2.506393032
     0.138834002        10.677622138        11.021817142
     1.081423014        11.611070150        11.670462150
     2.650992034         2.638659034         4.851200063
     2.526330033         3.736335048         3.660159047
     3.691116048         9.366088121         5.669554073
     4.473726058        10.755114139         5.659283073
     3.872316050        10.702565138         1.968902025
     3.555851046        10.633790137         3.670496047
     1.886560024         6.454902083         9.026821116
     2.004046026         7.913230102         9.714925125
     5.412776070         7.896351102        11.575463149
     4.315878056         7.688287099         0.268641003
     6.285352081         5.193089067         6.344313082
     7.430285096         5.507535071         7.708143099
     6.865288088         6.759485087         6.727195087
